K=8;
N=8;
P=[683 986 363 327 596 502 614 233];
R=[8 49 12 27 25 14 10 46];
A=[3 6 3 3 6 2 3 6];
C=[51 51 16 67 20 12 24 65];
M=[
[ 0 24 61 93 69 36 43 59 ]
[ 24 0 79 23 80 85 22 0 ]
[ 61 79 0 0 72 87 37 36 ]
[ 93 23 0 0 71 40 9 4 ]
[ 69 80 72 71 0 82 96 87 ]
[ 36 85 87 40 82 0 2 7 ]
[ 43 22 37 9 96 2 0 65 ]
[ 59 0 36 4 87 7 65 0 ]
];
